\ Using Xpress-MP extensions
Minimize
 x(1) + x(2) + 3 x(3) + 3 x(4) + 4 x(5) + 4 x(6) + 4 x(7) + 5 x(8) + 5 x(9) + 
5 x(10) + 5 x(11) + 5 x(12) + 5 x(13) + 5 x(14) + 5 x(15) + 6 x(16) + 6 x(17) + 
6 x(18) + 6 x(19) + 6 x(20) + 7 x(21) + 7 x(22) + 7 x(23) + 7 x(24) + 7 x(25) + 
8 x(26) + 9 x(27)

Subject To
_R1: x(10) + x(12) + x(15) + x(19) + x(22) + x(24) >= 1
_R2: x(3) + x(7) + x(9) + x(16) + x(17) + x(18) >= 1
_R3: x(2) + x(4) + x(6) + x(11) + x(20) + x(25) + x(26) >= 1
_R4: x(1) + x(5) + x(8) + x(13) + x(14) + x(27) >= 1
_R5: x(8) + x(14) + x(17) + x(18) >= 1
_R6: x(10) + x(12) + x(15) + x(19) + x(22) + x(24) >= 1
_R7: x(1) + x(3) + x(5) + x(9) + x(13) + x(16) >= 1
_R8: x(2) + x(4) + x(6) + x(11) + x(20) + x(25) + x(26) >= 1
_R9: x(7) + x(23) + x(27) >= 1
_R10: x(11) + x(12) + x(15) + x(20) + x(25) >= 1
_R11: x(8) + x(14) + x(17) + x(18) >= 1
_R12: x(2) + x(4) + x(6) + x(10) + x(19) + x(24) >= 1
_R13: x(1) + x(3) + x(5) + x(9) + x(13) + x(16) >= 1
_R14: x(21) + x(22) + x(26) >= 1
_R15: x(7) + x(23) + x(27) >= 1
_R16: x(13) + x(14) + x(16) >= 1
_R17: x(11) + x(12) + x(15) + x(20) + x(25) >= 1
_R18: x(1) + x(3) + x(8) + x(17) >= 1
_R19: x(2) + x(4) + x(6) + x(10) + x(19) + x(24) >= 1
_R20: x(5) + x(7) + x(9) + x(18) + x(23) + x(27) >= 1
_R21: x(21) + x(22) + x(26) >= 1
_R22: x(4) + x(19) + x(20) >= 1
_R23: x(13) + x(14) + x(16) >= 1
_R24: x(2) + x(10) + x(11) + x(12) >= 1
_R25: x(1) + x(3) + x(8) + x(17) >= 1
_R26: x(6) + x(15) + x(21) + x(22) + x(24) + x(25) + x(26) >= 1
_R27: x(5) + x(7) + x(9) + x(18) + x(23) + x(27) >= 1

Bounds
x(21) = 1
x(23) = 1

Binaries
x(1) x(2) x(3) x(4) x(5) x(6) x(7) x(8) x(9) x(10) x(11) x(12) x(13) x(14) x(15) 
x(16) x(17) x(18) x(19) x(20) x(21) x(22) x(23) x(24) x(25) x(26) x(27) 

End
